instances/knapsack/discrete/knapsack_80_14.kp
73368
80
382

71 7.1 81
87 8.7 34
57 5.7 27
42 4.2 59
63 6.3 93
37 3.7 36
32 3.2 85
31 3.1 11
100 10.0 90
97 9.7 94
99 9.9 58
98 9.8 46
83 8.3 2
95 9.5 73
24 2.4 62
88 8.8 91
8 0.8 65
47 4.7 53
52 5.2 46
37 3.7 73
100 10.0 85
11 1.1 98
71 7.1 87
58 5.8 55
4 0.4 68
59 5.9 26
89 8.9 67
95 9.5 19
25 2.5 69
46 4.6 4
97 9.7 32
35 3.5 3
31 3.1 47
12 1.2 18
91 9.1 7
40 4.0 4
15 1.5 76
28 2.8 62
23 2.3 78
46 4.6 87
98 9.8 91
69 6.9 93
21 2.1 57
93 9.3 90
22 2.2 98
6 0.6 82
9 0.9 68
89 8.9 44
26 2.6 84
7 0.7 89
78 7.8 2
3 0.3 46
4 0.4 98
51 5.1 52
28 2.8 99
63 6.3 77
84 8.4 58
46 4.6 83
35 3.5 7
61 6.1 78
72 7.2 35
6 0.6 97
59 5.9 69
14 1.4 81
55 5.5 58
75 7.5 84
16 1.6 24
18 1.8 41
95 9.5 64
85 8.5 45
49 4.9 8
53 5.3 14
37 3.7 88
26 2.6 81
27 2.7 30
100 10.0 25
74 7.4 57
10 1.0 92
4 0.4 91
22 2.2 59

1506
375

[3.26 0.88 4.62 1.39 4.67 2.78 3.3 4.47 3.16 3.02 4.1 2.6 3.34 2.15 3.98 2.56 3.87 4.34 0.64 2.6 2.97 4.36 2.55 1.12 0.44 4.44 1.63 2.78 0.34 3.23 3.73 0.1 0.23 1.75 2.74 3.39 2.9 0.47 3.35 4.03 3.46 2.8 3.35 4.57 2.8 3.42 1.43 3.69 4.15 3.44 1.33 3.46 4.65 2.77 4.52 3.07 2.68 2.14 4.54 4.33 1.02 3.8 4.51 1.36 1.12 1.54 3.19 1.5 2.64 2.62 0.08 3.38 2.17 3.86 0.1 2.32 1.89 3.22 0.86 3.65]

[24 68 30 87 48 94 37 28 89 54 28 39 88 64 29 57 9 72 37 18 37 4 72 47 41 8 54 84 30 35 30 100 52 97 32 5 52 73 4 35 43 94 66 30 27 15 18 18 71 36 75 4 29 100 57 84 73 63 12 6 21 31 96 27 100 72 13 67 88 26 90 46 34 3 64 33 79 99 37 99]
