instances/knapsack/discrete/knapsack_80_14.lp
\ Model knapsack_80_14
\ LP format - for model browsing. Use MPS format to capture full model detail.
\ Signature: 0xf86d0bbf74a39a5e
Minimize
  - 25 x[0] - 89 x[1] - 71 x[2] - 67 x[3] - 72 x[4] - 52 x[5] - 64 x[6]
   - 98 x[7] - 81 x[8] - 13 x[9] - 58 x[10] - 86 x[11] - 6 x[12] - 49 x[13]
   - 30 x[14] - 51 x[15] - 73 x[16] - 97 x[17] - 97 x[18] - 72 x[19]
   - 80 x[20] - 62 x[21] - 83 x[22] - 71 x[23] - 44 x[24] - 69 x[25]
   - 15 x[26] - 14 x[27] - 21 x[28] - 43 x[29] - 12 x[30] - 23 x[31]
   - 71 x[32] - 26 x[33] - 54 x[34] - 80 x[35] - 16 x[36] - 54 x[37]
   - 97 x[38] - 86 x[39] - 23 x[40] - 56 x[41] - 68 x[42] - 82 x[43]
   - 57 x[44] - 34 x[45] - 79 x[46] - 3 x[47] - 27 x[48] - 44 x[49]
   - 34 x[50] - 81 x[51] - 46 x[52] - 44 x[53] - 23 x[54] - 29 x[55]
   - 77 x[56] - 83 x[57] - 15 x[58] - 6 x[59] - 67 x[60] - 37 x[61]
   - 96 x[62] - 88 x[63] - 25 x[64] - 68 x[65] - 16 x[66] - 24 x[67]
   - 95 x[68] - 64 x[69] - 76 x[70] - 18 x[71] - 40 x[72] - 12 x[73]
   - 25 x[74] - 41 x[75] - 17 x[76] - 20 x[77] - 43 x[78] - 98 x[79]
Subject To
 primal_upper: 32 x[0] + 81 x[1] + 87 x[2] + 60 x[3] + 69 x[4] + 14 x[5]
   + 90 x[6] + 36 x[7] + 6 x[8] + 23 x[9] + 92 x[10] + 8 x[11] + 29 x[12]
   + 37 x[13] + 21 x[14] + 65 x[15] + 6 x[16] + 49 x[17] + 30 x[18]
   + 99 x[19] + 2 x[20] + 36 x[21] + 61 x[22] + 51 x[23] + 97 x[24]
   + 69 x[25] + 7 x[26] + 20 x[27] + 94 x[28] + 60 x[29] + 74 x[30]
   + 48 x[31] + 96 x[32] + 46 x[33] + 73 x[34] + 90 x[35] + 41 x[36]
   + 85 x[37] + 49 x[38] + 99 x[39] + 40 x[40] + 30 x[41] + 31 x[42]
   + 42 x[43] + 72 x[44] + 23 x[45] + 78 x[46] + 82 x[47] + 76 x[48]
   + 37 x[49] + 11 x[50] + 69 x[51] + 38 x[52] + 41 x[53] + 41 x[54]
   + 84 x[55] + 74 x[56] + 67 x[57] + x[58] + 43 x[59] + 85 x[60]
   + 51 x[61] + 48 x[62] + 15 x[63] + 88 x[64] + 49 x[65] + 5 x[66]
   + 47 x[67] + 17 x[68] + 34 x[69] + 10 x[70] + 46 x[71] + 67 x[72]
   + 56 x[73] + 8 x[74] + 81 x[75] + 67 x[76] + 92 x[77] + 65 x[78]
   + 31 x[79] + 3.2 r[0] + 8.1 r[1] + 8.7 r[2] + 6 r[3] + 6.9 r[4]
   + 1.4 r[5] + 9 r[6] + 3.6 r[7] + 0.6 r[8] + 2.3 r[9] + 9.2 r[10]
   + 0.8 r[11] + 2.9 r[12] + 3.7 r[13] + 2.1 r[14] + 6.5 r[15] + 0.6 r[16]
   + 4.9 r[17] + 3 r[18] + 9.9 r[19] + 0.2 r[20] + 3.6 r[21] + 6.1 r[22]
   + 5.1 r[23] + 9.7 r[24] + 6.9 r[25] + 0.7 r[26] + 2 r[27] + 9.4 r[28]
   + 6 r[29] + 7.4 r[30] + 4.8 r[31] + 9.6 r[32] + 4.6 r[33] + 7.3 r[34]
   + 9 r[35] + 4.1 r[36] + 8.5 r[37] + 4.9 r[38] + 9.9 r[39] + 4 r[40]
   + 3 r[41] + 3.1 r[42] + 4.2 r[43] + 7.2 r[44] + 2.3 r[45] + 7.8 r[46]
   + 8.2 r[47] + 7.6 r[48] + 3.7 r[49] + 1.1 r[50] + 6.9 r[51] + 3.8 r[52]
   + 4.1 r[53] + 4.1 r[54] + 8.4 r[55] + 7.4 r[56] + 6.7 r[57] + 0.1 r[58]
   + 4.3 r[59] + 8.5 r[60] + 5.1 r[61] + 4.8 r[62] + 1.5 r[63] + 8.8 r[64]
   + 4.9 r[65] + 0.5 r[66] + 4.7 r[67] + 1.7 r[68] + 3.4 r[69] + r[70]
   + 4.6 r[71] + 6.7 r[72] + 5.6 r[73] + 0.8 r[74] + 8.1 r[75] + 6.7 r[76]
   + 9.2 r[77] + 6.5 r[78] + 3.1 r[79] <= 388
 primal_lower: 2.59644794496154 x[0] + 1.302741137222396 x[1]
   + 1.784625647546369 x[2] + 3.957493204005585 x[3]
   + 0.9275286580052816 x[4] + 4.520854459557251 x[5]
   + 3.589901092670599 x[6] + 3.83878856582252 x[7]
   + 2.479704228112017 x[8] + 0.8693996632116596 x[9]
   + 3.434319156012566 x[10] + 3.057360161105504 x[11]
   + 4.115304803012753 x[12] + 3.34810800781176 x[13]
   + 4.174853366029145 x[14] + 4.663913897951044 x[15]
   + 4.333776162015623 x[16] + 3.6311462710198 x[17]
   + 3.107007704320534 x[18] + 2.033619199202961 x[19]
   + 2.996789131439054 x[20] + 0.5032414296572953 x[21]
   + 1.055430214763275 x[22] + 1.993189328240937 x[23]
   + 2.589204025459087 x[24] + 3.109824337083843 x[25]
   + 0.0222487063459849 x[26] + 1.168487107293294 x[27]
   + 4.083727558934021 x[28] + 1.854757505793841 x[29]
   + 4.42642665217709 x[30] + 3.978637984119459 x[31]
   + 3.213867483062521 x[32] + 4.208594852963878 x[33]
   + 0.7508206407054974 x[34] + 3.300405170093653 x[35]
   + 2.126595568574566 x[36] + 3.993570462131045 x[37]
   + 2.662505116916646 x[38] + 3.776503382199553 x[39]
   + 2.517141287298282 x[40] + 3.39950590023153 x[41]
   + 3.468359174195225 x[42] + 2.87039063151541 x[43]
   + 3.082777267647919 x[44] + 2.50801833340416 x[45]
   + 2.21070739186415 x[46] + 4.185277626175059 x[47]
   + 0.9000329469217894 x[48] + 2.152596520875718 x[49]
   + 2.378239505638686 x[50] + 2.40931037493583 x[51]
   + 4.161743335330812 x[52] + 3.744914797947327 x[53]
   + 1.693236448326321 x[54] + 3.641235630915616 x[55]
   + 2.821605719104093 x[56] + 0.265624236947926 x[57]
   + 3.625354462011295 x[58] + 0.5120487678157835 x[59]
   + 2.774623653398799 x[60] + 1.047351729710539 x[61]
   + 3.743475849703313 x[62] + 2.114071033520208 x[63]
   + 3.088061741902816 x[64] + 3.809161588034662 x[65]
   + 4.190022142297096 x[66] + 1.084629319777842 x[67]
   + 2.281130516110011 x[68] + 1.869834429285743 x[69]
   + 1.501200159519757 x[70] + 1.517672852025879 x[71]
   + 3.915107998449298 x[72] + 4.458535331825416 x[73]
   + 2.799769826558775 x[74] + 2.367635457959354 x[75]
   + 2.085641701038961 x[76] + 0.301562781457869 x[77]
   + 3.33418165547889 x[78] + 2.697357303687315 x[79] + 20 u[0] + 32 u[1]
   + 14 u[2] + 15 u[3] + 32 u[4] + 38 u[5] + 41 u[6] + 52 u[7] + 5 u[8]
   + 18 u[9] + 48 u[10] + 59 u[11] + 56 u[12] + 20 u[13] + 65 u[14]
   + 57 u[15] + 29 u[16] + 4 u[17] + 9 u[18] + 10 u[19] + 21 u[20]
   + 64 u[21] + 80 u[22] + 59 u[23] + u[24] + 96 u[25] + 54 u[26]
   + 96 u[27] + 18 u[28] + 95 u[29] + 94 u[30] + 100 u[31] + 52 u[32]
   + 97 u[33] + 64 u[34] + 61 u[35] + 28 u[36] + 49 u[37] + 32 u[38]
   + 67 u[39] + 11 u[40] + 38 u[41] + 50 u[42] + 26 u[43] + 43 u[44]
   + 23 u[45] + 62 u[46] + 74 u[47] + 87 u[48] + 44 u[49] + 75 u[50]
   + 92 u[51] + u[52] + 60 u[53] + 65 u[54] + 52 u[55] + 29 u[56]
   + 95 u[57] + 64 u[58] + 66 u[59] + 53 u[60] + 95 u[61] + 92 u[62]
   + 99 u[63] + 48 u[64] + 96 u[65] + 13 u[66] + 19 u[67] + 48 u[68]
   + 18 u[69] + 54 u[70] + 26 u[71] + 90 u[72] + 31 u[73] + 56 u[74]
   + 85 u[75] + 3 u[76] + 79 u[77] + 69 u[78] + 11 u[79] <= 32722
 mccormick1[0]: - u[0] + r[0] <= 0
 mccormick1[1]: - u[1] + r[1] <= 0
 mccormick1[2]: - u[2] + r[2] <= 0
 mccormick1[3]: - u[3] + r[3] <= 0
 mccormick1[4]: - u[4] + r[4] <= 0
 mccormick1[5]: - u[5] + r[5] <= 0
 mccormick1[6]: - u[6] + r[6] <= 0
 mccormick1[7]: - u[7] + r[7] <= 0
 mccormick1[8]: - u[8] + r[8] <= 0
 mccormick1[9]: - u[9] + r[9] <= 0
 mccormick1[10]: - u[10] + r[10] <= 0
 mccormick1[11]: - u[11] + r[11] <= 0
 mccormick1[12]: - u[12] + r[12] <= 0
 mccormick1[13]: - u[13] + r[13] <= 0
 mccormick1[14]: - u[14] + r[14] <= 0
 mccormick1[15]: - u[15] + r[15] <= 0
 mccormick1[16]: - u[16] + r[16] <= 0
 mccormick1[17]: - u[17] + r[17] <= 0
 mccormick1[18]: - u[18] + r[18] <= 0
 mccormick1[19]: - u[19] + r[19] <= 0
 mccormick1[20]: - u[20] + r[20] <= 0
 mccormick1[21]: - u[21] + r[21] <= 0
 mccormick1[22]: - u[22] + r[22] <= 0
 mccormick1[23]: - u[23] + r[23] <= 0
 mccormick1[24]: - u[24] + r[24] <= 0
 mccormick1[25]: - u[25] + r[25] <= 0
 mccormick1[26]: - u[26] + r[26] <= 0
 mccormick1[27]: - u[27] + r[27] <= 0
 mccormick1[28]: - u[28] + r[28] <= 0
 mccormick1[29]: - u[29] + r[29] <= 0
 mccormick1[30]: - u[30] + r[30] <= 0
 mccormick1[31]: - u[31] + r[31] <= 0
 mccormick1[32]: - u[32] + r[32] <= 0
 mccormick1[33]: - u[33] + r[33] <= 0
 mccormick1[34]: - u[34] + r[34] <= 0
 mccormick1[35]: - u[35] + r[35] <= 0
 mccormick1[36]: - u[36] + r[36] <= 0
 mccormick1[37]: - u[37] + r[37] <= 0
 mccormick1[38]: - u[38] + r[38] <= 0
 mccormick1[39]: - u[39] + r[39] <= 0
 mccormick1[40]: - u[40] + r[40] <= 0
 mccormick1[41]: - u[41] + r[41] <= 0
 mccormick1[42]: - u[42] + r[42] <= 0
 mccormick1[43]: - u[43] + r[43] <= 0
 mccormick1[44]: - u[44] + r[44] <= 0
 mccormick1[45]: - u[45] + r[45] <= 0
 mccormick1[46]: - u[46] + r[46] <= 0
 mccormick1[47]: - u[47] + r[47] <= 0
 mccormick1[48]: - u[48] + r[48] <= 0
 mccormick1[49]: - u[49] + r[49] <= 0
 mccormick1[50]: - u[50] + r[50] <= 0
 mccormick1[51]: - u[51] + r[51] <= 0
 mccormick1[52]: - u[52] + r[52] <= 0
 mccormick1[53]: - u[53] + r[53] <= 0
 mccormick1[54]: - u[54] + r[54] <= 0
 mccormick1[55]: - u[55] + r[55] <= 0
 mccormick1[56]: - u[56] + r[56] <= 0
 mccormick1[57]: - u[57] + r[57] <= 0
 mccormick1[58]: - u[58] + r[58] <= 0
 mccormick1[59]: - u[59] + r[59] <= 0
 mccormick1[60]: - u[60] + r[60] <= 0
 mccormick1[61]: - u[61] + r[61] <= 0
 mccormick1[62]: - u[62] + r[62] <= 0
 mccormick1[63]: - u[63] + r[63] <= 0
 mccormick1[64]: - u[64] + r[64] <= 0
 mccormick1[65]: - u[65] + r[65] <= 0
 mccormick1[66]: - u[66] + r[66] <= 0
 mccormick1[67]: - u[67] + r[67] <= 0
 mccormick1[68]: - u[68] + r[68] <= 0
 mccormick1[69]: - u[69] + r[69] <= 0
 mccormick1[70]: - u[70] + r[70] <= 0
 mccormick1[71]: - u[71] + r[71] <= 0
 mccormick1[72]: - u[72] + r[72] <= 0
 mccormick1[73]: - u[73] + r[73] <= 0
 mccormick1[74]: - u[74] + r[74] <= 0
 mccormick1[75]: - u[75] + r[75] <= 0
 mccormick1[76]: - u[76] + r[76] <= 0
 mccormick1[77]: - u[77] + r[77] <= 0
 mccormick1[78]: - u[78] + r[78] <= 0
 mccormick1[79]: - u[79] + r[79] <= 0
 mccormick2[0]: - x[0] + r[0] <= 0
 mccormick2[1]: - x[1] + r[1] <= 0
 mccormick2[2]: - x[2] + r[2] <= 0
 mccormick2[3]: - x[3] + r[3] <= 0
 mccormick2[4]: - x[4] + r[4] <= 0
 mccormick2[5]: - x[5] + r[5] <= 0
 mccormick2[6]: - x[6] + r[6] <= 0
 mccormick2[7]: - x[7] + r[7] <= 0
 mccormick2[8]: - x[8] + r[8] <= 0
 mccormick2[9]: - x[9] + r[9] <= 0
 mccormick2[10]: - x[10] + r[10] <= 0
 mccormick2[11]: - x[11] + r[11] <= 0
 mccormick2[12]: - x[12] + r[12] <= 0
 mccormick2[13]: - x[13] + r[13] <= 0
 mccormick2[14]: - x[14] + r[14] <= 0
 mccormick2[15]: - x[15] + r[15] <= 0
 mccormick2[16]: - x[16] + r[16] <= 0
 mccormick2[17]: - x[17] + r[17] <= 0
 mccormick2[18]: - x[18] + r[18] <= 0
 mccormick2[19]: - x[19] + r[19] <= 0
 mccormick2[20]: - x[20] + r[20] <= 0
 mccormick2[21]: - x[21] + r[21] <= 0
 mccormick2[22]: - x[22] + r[22] <= 0
 mccormick2[23]: - x[23] + r[23] <= 0
 mccormick2[24]: - x[24] + r[24] <= 0
 mccormick2[25]: - x[25] + r[25] <= 0
 mccormick2[26]: - x[26] + r[26] <= 0
 mccormick2[27]: - x[27] + r[27] <= 0
 mccormick2[28]: - x[28] + r[28] <= 0
 mccormick2[29]: - x[29] + r[29] <= 0
 mccormick2[30]: - x[30] + r[30] <= 0
 mccormick2[31]: - x[31] + r[31] <= 0
 mccormick2[32]: - x[32] + r[32] <= 0
 mccormick2[33]: - x[33] + r[33] <= 0
 mccormick2[34]: - x[34] + r[34] <= 0
 mccormick2[35]: - x[35] + r[35] <= 0
 mccormick2[36]: - x[36] + r[36] <= 0
 mccormick2[37]: - x[37] + r[37] <= 0
 mccormick2[38]: - x[38] + r[38] <= 0
 mccormick2[39]: - x[39] + r[39] <= 0
 mccormick2[40]: - x[40] + r[40] <= 0
 mccormick2[41]: - x[41] + r[41] <= 0
 mccormick2[42]: - x[42] + r[42] <= 0
 mccormick2[43]: - x[43] + r[43] <= 0
 mccormick2[44]: - x[44] + r[44] <= 0
 mccormick2[45]: - x[45] + r[45] <= 0
 mccormick2[46]: - x[46] + r[46] <= 0
 mccormick2[47]: - x[47] + r[47] <= 0
 mccormick2[48]: - x[48] + r[48] <= 0
 mccormick2[49]: - x[49] + r[49] <= 0
 mccormick2[50]: - x[50] + r[50] <= 0
 mccormick2[51]: - x[51] + r[51] <= 0
 mccormick2[52]: - x[52] + r[52] <= 0
 mccormick2[53]: - x[53] + r[53] <= 0
 mccormick2[54]: - x[54] + r[54] <= 0
 mccormick2[55]: - x[55] + r[55] <= 0
 mccormick2[56]: - x[56] + r[56] <= 0
 mccormick2[57]: - x[57] + r[57] <= 0
 mccormick2[58]: - x[58] + r[58] <= 0
 mccormick2[59]: - x[59] + r[59] <= 0
 mccormick2[60]: - x[60] + r[60] <= 0
 mccormick2[61]: - x[61] + r[61] <= 0
 mccormick2[62]: - x[62] + r[62] <= 0
 mccormick2[63]: - x[63] + r[63] <= 0
 mccormick2[64]: - x[64] + r[64] <= 0
 mccormick2[65]: - x[65] + r[65] <= 0
 mccormick2[66]: - x[66] + r[66] <= 0
 mccormick2[67]: - x[67] + r[67] <= 0
 mccormick2[68]: - x[68] + r[68] <= 0
 mccormick2[69]: - x[69] + r[69] <= 0
 mccormick2[70]: - x[70] + r[70] <= 0
 mccormick2[71]: - x[71] + r[71] <= 0
 mccormick2[72]: - x[72] + r[72] <= 0
 mccormick2[73]: - x[73] + r[73] <= 0
 mccormick2[74]: - x[74] + r[74] <= 0
 mccormick2[75]: - x[75] + r[75] <= 0
 mccormick2[76]: - x[76] + r[76] <= 0
 mccormick2[77]: - x[77] + r[77] <= 0
 mccormick2[78]: - x[78] + r[78] <= 0
 mccormick2[79]: - x[79] + r[79] <= 0
 mccormick3[0]: x[0] + u[0] - r[0] <= 1
 mccormick3[1]: x[1] + u[1] - r[1] <= 1
 mccormick3[2]: x[2] + u[2] - r[2] <= 1
 mccormick3[3]: x[3] + u[3] - r[3] <= 1
 mccormick3[4]: x[4] + u[4] - r[4] <= 1
 mccormick3[5]: x[5] + u[5] - r[5] <= 1
 mccormick3[6]: x[6] + u[6] - r[6] <= 1
 mccormick3[7]: x[7] + u[7] - r[7] <= 1
 mccormick3[8]: x[8] + u[8] - r[8] <= 1
 mccormick3[9]: x[9] + u[9] - r[9] <= 1
 mccormick3[10]: x[10] + u[10] - r[10] <= 1
 mccormick3[11]: x[11] + u[11] - r[11] <= 1
 mccormick3[12]: x[12] + u[12] - r[12] <= 1
 mccormick3[13]: x[13] + u[13] - r[13] <= 1
 mccormick3[14]: x[14] + u[14] - r[14] <= 1
 mccormick3[15]: x[15] + u[15] - r[15] <= 1
 mccormick3[16]: x[16] + u[16] - r[16] <= 1
 mccormick3[17]: x[17] + u[17] - r[17] <= 1
 mccormick3[18]: x[18] + u[18] - r[18] <= 1
 mccormick3[19]: x[19] + u[19] - r[19] <= 1
 mccormick3[20]: x[20] + u[20] - r[20] <= 1
 mccormick3[21]: x[21] + u[21] - r[21] <= 1
 mccormick3[22]: x[22] + u[22] - r[22] <= 1
 mccormick3[23]: x[23] + u[23] - r[23] <= 1
 mccormick3[24]: x[24] + u[24] - r[24] <= 1
 mccormick3[25]: x[25] + u[25] - r[25] <= 1
 mccormick3[26]: x[26] + u[26] - r[26] <= 1
 mccormick3[27]: x[27] + u[27] - r[27] <= 1
 mccormick3[28]: x[28] + u[28] - r[28] <= 1
 mccormick3[29]: x[29] + u[29] - r[29] <= 1
 mccormick3[30]: x[30] + u[30] - r[30] <= 1
 mccormick3[31]: x[31] + u[31] - r[31] <= 1
 mccormick3[32]: x[32] + u[32] - r[32] <= 1
 mccormick3[33]: x[33] + u[33] - r[33] <= 1
 mccormick3[34]: x[34] + u[34] - r[34] <= 1
 mccormick3[35]: x[35] + u[35] - r[35] <= 1
 mccormick3[36]: x[36] + u[36] - r[36] <= 1
 mccormick3[37]: x[37] + u[37] - r[37] <= 1
 mccormick3[38]: x[38] + u[38] - r[38] <= 1
 mccormick3[39]: x[39] + u[39] - r[39] <= 1
 mccormick3[40]: x[40] + u[40] - r[40] <= 1
 mccormick3[41]: x[41] + u[41] - r[41] <= 1
 mccormick3[42]: x[42] + u[42] - r[42] <= 1
 mccormick3[43]: x[43] + u[43] - r[43] <= 1
 mccormick3[44]: x[44] + u[44] - r[44] <= 1
 mccormick3[45]: x[45] + u[45] - r[45] <= 1
 mccormick3[46]: x[46] + u[46] - r[46] <= 1
 mccormick3[47]: x[47] + u[47] - r[47] <= 1
 mccormick3[48]: x[48] + u[48] - r[48] <= 1
 mccormick3[49]: x[49] + u[49] - r[49] <= 1
 mccormick3[50]: x[50] + u[50] - r[50] <= 1
 mccormick3[51]: x[51] + u[51] - r[51] <= 1
 mccormick3[52]: x[52] + u[52] - r[52] <= 1
 mccormick3[53]: x[53] + u[53] - r[53] <= 1
 mccormick3[54]: x[54] + u[54] - r[54] <= 1
 mccormick3[55]: x[55] + u[55] - r[55] <= 1
 mccormick3[56]: x[56] + u[56] - r[56] <= 1
 mccormick3[57]: x[57] + u[57] - r[57] <= 1
 mccormick3[58]: x[58] + u[58] - r[58] <= 1
 mccormick3[59]: x[59] + u[59] - r[59] <= 1
 mccormick3[60]: x[60] + u[60] - r[60] <= 1
 mccormick3[61]: x[61] + u[61] - r[61] <= 1
 mccormick3[62]: x[62] + u[62] - r[62] <= 1
 mccormick3[63]: x[63] + u[63] - r[63] <= 1
 mccormick3[64]: x[64] + u[64] - r[64] <= 1
 mccormick3[65]: x[65] + u[65] - r[65] <= 1
 mccormick3[66]: x[66] + u[66] - r[66] <= 1
 mccormick3[67]: x[67] + u[67] - r[67] <= 1
 mccormick3[68]: x[68] + u[68] - r[68] <= 1
 mccormick3[69]: x[69] + u[69] - r[69] <= 1
 mccormick3[70]: x[70] + u[70] - r[70] <= 1
 mccormick3[71]: x[71] + u[71] - r[71] <= 1
 mccormick3[72]: x[72] + u[72] - r[72] <= 1
 mccormick3[73]: x[73] + u[73] - r[73] <= 1
 mccormick3[74]: x[74] + u[74] - r[74] <= 1
 mccormick3[75]: x[75] + u[75] - r[75] <= 1
 mccormick3[76]: x[76] + u[76] - r[76] <= 1
 mccormick3[77]: x[77] + u[77] - r[77] <= 1
 mccormick3[78]: x[78] + u[78] - r[78] <= 1
 mccormick3[79]: x[79] + u[79] - r[79] <= 1
Bounds
Binaries
 x[0] x[1] x[2] x[3] x[4] x[5] x[6] x[7] x[8] x[9] x[10] x[11] x[12] x[13]
 x[14] x[15] x[16] x[17] x[18] x[19] x[20] x[21] x[22] x[23] x[24] x[25]
 x[26] x[27] x[28] x[29] x[30] x[31] x[32] x[33] x[34] x[35] x[36] x[37]
 x[38] x[39] x[40] x[41] x[42] x[43] x[44] x[45] x[46] x[47] x[48] x[49]
 x[50] x[51] x[52] x[53] x[54] x[55] x[56] x[57] x[58] x[59] x[60] x[61]
 x[62] x[63] x[64] x[65] x[66] x[67] x[68] x[69] x[70] x[71] x[72] x[73]
 x[74] x[75] x[76] x[77] x[78] x[79] u[0] u[1] u[2] u[3] u[4] u[5] u[6]
 u[7] u[8] u[9] u[10] u[11] u[12] u[13] u[14] u[15] u[16] u[17] u[18] u[19]
 u[20] u[21] u[22] u[23] u[24] u[25] u[26] u[27] u[28] u[29] u[30] u[31]
 u[32] u[33] u[34] u[35] u[36] u[37] u[38] u[39] u[40] u[41] u[42] u[43]
 u[44] u[45] u[46] u[47] u[48] u[49] u[50] u[51] u[52] u[53] u[54] u[55]
 u[56] u[57] u[58] u[59] u[60] u[61] u[62] u[63] u[64] u[65] u[66] u[67]
 u[68] u[69] u[70] u[71] u[72] u[73] u[74] u[75] u[76] u[77] u[78] u[79]
 r[0] r[1] r[2] r[3] r[4] r[5] r[6] r[7] r[8] r[9] r[10] r[11] r[12] r[13]
 r[14] r[15] r[16] r[17] r[18] r[19] r[20] r[21] r[22] r[23] r[24] r[25]
 r[26] r[27] r[28] r[29] r[30] r[31] r[32] r[33] r[34] r[35] r[36] r[37]
 r[38] r[39] r[40] r[41] r[42] r[43] r[44] r[45] r[46] r[47] r[48] r[49]
 r[50] r[51] r[52] r[53] r[54] r[55] r[56] r[57] r[58] r[59] r[60] r[61]
 r[62] r[63] r[64] r[65] r[66] r[67] r[68] r[69] r[70] r[71] r[72] r[73]
 r[74] r[75] r[76] r[77] r[78] r[79]
End
